
Gurobi 9.5.0 (linux64) logging started Wed Nov  8 12:07:10 2023

Set parameter LogFile to value "/lustre1/scratch/348/vsc34888/JointResearch/05.Models/06.Benchmarking/F.Representative_days_based_on_Line_Benefit_NN_OC_fy_1/9n_ByStages_nc80/openStarNet_9n_ByStages_nc80.log"
Set parameter Method to value 2
Set parameter MIPFocus to value 1
Set parameter Presolve to value 2
Set parameter RINS to value 100
Set parameter MIPGap to value 0.01
Set parameter Threads to value 36
Set parameter TimeLimit to value 604800
Set parameter IterationLimit to value 760000000
Gurobi Optimizer version 9.5.0 build v9.5.0rc5 (linux64)
Thread count: 36 physical cores, 36 logical processors, using up to 36 threads
Optimize a model with 20963 rows, 11145 columns and 65423 nonzeros
Model fingerprint: 0xb9796ccb
Variable types: 11109 continuous, 36 integer (36 binary)
Coefficient statistics:
  Matrix range     [8e-04, 3e+03]
  Objective range  [1e+00, 1e+00]
  Bounds range     [4e-04, 2e+00]
  RHS range        [4e-04, 1e+00]
Presolve removed 6803 rows and 3444 columns
Presolve time: 0.07s
Presolved: 14160 rows, 7701 columns, 50145 nonzeros
Variable types: 7665 continuous, 36 integer (36 binary)
Found heuristic solution: objective 894.5519849
Root relaxation presolved: 14160 rows, 7701 columns, 50145 nonzeros

Root barrier log...

Ordering time: 0.01s

Barrier statistics:
 Dense cols : 36
 AA' NZ     : 1.906e+05
 Factor NZ  : 3.883e+05 (roughly 12 MB of memory)
 Factor Ops : 1.624e+07 (less than 1 second per iteration)
 Threads    : 36

                  Objective                Residual
Iter       Primal          Dual         Primal    Dual     Compl     Time
   0   3.64787605e+05 -1.21589469e+08  6.24e+00 7.71e+02  1.31e+04     0s
   1   5.63019152e+04 -3.47442885e+07  6.98e-01 1.03e-08  1.71e+03     0s
   2   1.77409767e+04 -4.85919187e+06  3.32e-03 2.22e-09  1.75e+02     0s
   3   1.02668170e+04 -9.40179883e+04  3.92e-13 1.66e-11  3.74e+00     0s
   4   1.34769020e+03 -2.06240394e+04  3.26e-13 3.65e-12  7.88e-01     0s
   5   7.13989368e+02 -6.49986280e+03  2.45e-13 1.82e-12  2.59e-01     0s
   6   5.48034781e+02 -1.56114951e+03  2.06e-13 9.09e-13  7.57e-02     0s
   7   3.40516844e+02 -6.60166687e+02  2.21e-13 9.09e-13  3.59e-02     0s
   8   2.01098279e+02 -2.20730760e+02  1.85e-13 1.82e-12  1.51e-02     0s
   9   1.18708401e+02 -4.40005782e-01  2.19e-13 1.82e-12  4.27e-03     0s
  10   1.00941487e+02  5.58660341e+01  2.91e-12 1.82e-12  1.62e-03     0s
  11   9.58817229e+01  7.16499443e+01  1.60e-12 1.82e-12  8.69e-04     0s
  12   9.27227070e+01  8.09453282e+01  1.37e-12 1.82e-12  4.22e-04     0s
  13   9.12841082e+01  8.13150451e+01  5.16e-12 1.82e-12  3.58e-04     0s
  14   9.02637196e+01  8.21438474e+01  6.20e-12 1.82e-12  2.91e-04     0s
  15   8.91643770e+01  8.32752231e+01  1.40e-11 1.82e-12  2.11e-04     0s
  16   8.76215348e+01  8.61217442e+01  1.33e-11 1.82e-12  5.38e-05     0s
  17   8.73143844e+01  8.72459932e+01  1.37e-11 1.82e-12  2.45e-06     0s
  18   8.72969357e+01  8.72966159e+01  2.85e-10 1.82e-12  1.15e-08     0s
  19   8.72968359e+01  8.72968359e+01  1.50e-10 1.82e-12  1.80e-14     0s

Barrier solved model in 19 iterations and 0.45 seconds (0.29 work units)
Optimal objective 8.72968359e+01


Root relaxation: objective 8.729684e+01, 697 iterations, 0.33 seconds (0.17 work units)

    Nodes    |    Current Node    |     Objective Bounds      |     Work
 Expl Unexpl |  Obj  Depth IntInf | Incumbent    BestBd   Gap | It/Node Time

     0     0   87.29684    0    6  894.55198   87.29684  90.2%     -    0s
H    0     0                     785.5239241   87.29684  88.9%     -    0s
H    0     0                     106.8528088   95.02503  11.1%     -    0s
     0     0   95.02503    0    1  106.85281   95.02503  11.1%     -    0s
H    0     0                      97.3316768   95.02503  2.37%     -    0s
H    0     0                      95.8278088   95.43817  0.41%     -    0s
     0     0   95.43817    0    1   95.82781   95.43817  0.41%     -    0s

Cutting planes:
  MIR: 160

Explored 1 nodes (1267 simplex iterations) in 0.82 seconds (0.51 work units)
Thread count was 36 (of 36 available processors)

Solution count 5: 95.8278 97.3317 106.853 ... 894.552

Optimal solution found (tolerance 1.00e-02)
Best objective 9.582780880691e+01, best bound 9.543817199292e+01, gap 0.4066%

Gurobi 9.5.0 (linux64) logging started Wed Nov  8 12:07:13 2023

Set parameter LogFile to value "/lustre1/scratch/348/vsc34888/JointResearch/05.Models/06.Benchmarking/F.Representative_days_based_on_Line_Benefit_NN_OC_fy_1/9n_ByStages_nc80/openStarNet_9n_ByStages_nc80.log"
Set parameter Method to value 2
Set parameter MIPFocus to value 1
Set parameter Presolve to value 2
Set parameter RINS to value 100
Set parameter MIPGap to value 0.01
Set parameter Threads to value 36
Set parameter TimeLimit to value 604800
Set parameter IterationLimit to value 760000000
No parameters matching 'relax_integrality' found
Gurobi Optimizer version 9.5.0 build v9.5.0rc5 (linux64)
Thread count: 36 physical cores, 36 logical processors, using up to 36 threads
Optimize a model with 20963 rows, 11109 columns and 53867 nonzeros
Model fingerprint: 0xbe4ba20e
Coefficient statistics:
  Matrix range     [8e-04, 3e+03]
  Objective range  [1e+00, 1e+00]
  Bounds range     [4e-04, 2e+00]
  RHS range        [4e-04, 2e+01]
Presolve removed 18083 rows and 6084 columns
Presolve time: 0.02s
Presolved: 2880 rows, 5025 columns, 11025 nonzeros

Ordering time: 0.00s

Barrier statistics:
 AA' NZ     : 8.080e+03
 Factor NZ  : 2.960e+04 (roughly 3 MB of memory)
 Factor Ops : 3.646e+05 (less than 1 second per iteration)
 Threads    : 1

                  Objective                Residual
Iter       Primal          Dual         Primal    Dual     Compl     Time
   0   4.08270289e+05 -7.15239846e+07  4.12e+00 1.82e-12  1.55e+04     0s
   1   6.52390922e+04 -1.43836855e+07  4.48e-01 1.07e-11  1.87e+03     0s
   2   2.07221291e+04 -2.38143559e+06  1.69e-02 9.20e-12  2.25e+02     0s
   3   1.14171170e+04 -8.09262001e+04  3.02e-14 7.73e-12  8.39e+00     0s
   4   2.27872792e+03 -1.27626707e+04  6.57e-14 3.51e-12  1.37e+00     0s
   5   8.26064072e+02 -3.98910329e+03  8.17e-14 3.64e-12  4.37e-01     0s
   6   4.93605901e+02 -1.02159926e+03  8.79e-14 1.82e-12  1.38e-01     0s
   7   2.61650188e+02 -2.25341939e+02  1.82e-13 1.82e-12  4.42e-02     0s
   8   1.52702039e+02  1.83942146e+01  1.78e-13 1.82e-12  1.22e-02     0s
   9   1.17074412e+02  7.04112664e+01  2.97e-13 1.82e-12  4.24e-03     0s
  10   1.05096469e+02  8.54537834e+01  2.74e-13 3.64e-12  1.78e-03     0s
  11   9.90393822e+01  9.10139096e+01  5.02e-13 1.82e-12  7.29e-04     0s
  12   9.67063474e+01  9.38349951e+01  1.38e-12 1.82e-12  2.61e-04     0s
  13   9.59680473e+01  9.57059764e+01  3.19e-12 3.64e-12  2.38e-05     0s
  14   9.58322579e+01  9.58235270e+01  2.84e-11 1.82e-12  7.93e-07     0s
  15   9.58278137e+01  9.58278032e+01  6.68e-11 1.82e-12  9.50e-10     0s
  16   9.58278088e+01  9.58278088e+01  1.42e-10 1.82e-12  1.03e-15     0s

Barrier solved model in 16 iterations and 0.05 seconds (0.05 work units)
Optimal objective 9.58278088e+01

Crossover log...

     937 DPushes remaining with DInf 0.0000000e+00                 0s
       0 DPushes remaining with DInf 0.0000000e+00                 0s

      88 PPushes remaining with PInf 0.0000000e+00                 0s
       0 PPushes remaining with PInf 0.0000000e+00                 0s

  Push phase complete: Pinf 0.0000000e+00, Dinf 8.7928796e-14      0s

Iteration    Objective       Primal Inf.    Dual Inf.      Time
     184    9.5827809e+01   0.000000e+00   0.000000e+00      0s

Solved in 184 iterations and 0.07 seconds (0.06 work units)
Optimal objective  9.582780881e+01
